c
c start with comments
c
p cnf 36 26
19 17 0
-30 6 0
-11 -37 0
18 -25 0
31 -15 0
-22 -5 -20 0
38 -3 -14 -22 -1 38 0
8 36 35 0
8 29 -31 0
28 -36 28 0
38 4 7 0
-27 -3 20 -6 4 0
-19 20 -39 0
4 36 22 0
-26 -38 -33 0
25 10 0
39 -32 13 1 -19 0
-29 26 0
-27 -17 -20 -2 -38 36 0
-5 34 -13 8 12 0
-19 -38 -3 -20 0
-6 34 7 0
14 30 0
-10 3 0
39 -27 -22 -24 -23 0
32 24 0